n =  50 ;
E = [| 1 , 2 ,
| 1 , 3 ,
| 1 , 4 ,
| 1 , 7 ,
| 1 , 9 ,
| 1 , 11 ,
| 1 , 12 ,
| 1 , 15 ,
| 1 , 16 ,
| 1 , 17 ,
| 1 , 19 ,
| 1 , 21 ,
| 1 , 23 ,
| 1 , 25 ,
| 1 , 38 ,
| 1 , 40 ,
| 1 , 41 ,
| 1 , 43 ,
| 1 , 47 ,
| 1 , 48 ,
| 2 , 4 ,
| 2 , 5 ,
| 2 , 6 ,
| 2 , 7 ,
| 2 , 10 ,
| 2 , 13 ,
| 2 , 20 ,
| 2 , 22 ,
| 2 , 24 ,
| 2 , 25 ,
| 2 , 26 ,
| 2 , 27 ,
| 2 , 28 ,
| 2 , 37 ,
| 2 , 46 ,
| 3 , 4 ,
| 3 , 7 ,
| 3 , 14 ,
| 3 , 16 ,
| 3 , 18 ,
| 3 , 19 ,
| 3 , 20 ,
| 3 , 21 ,
| 3 , 24 ,
| 3 , 25 ,
| 3 , 27 ,
| 3 , 28 ,
| 3 , 29 ,
| 3 , 30 ,
| 3 , 33 ,
| 3 , 34 ,
| 3 , 43 ,
| 3 , 44 ,
| 3 , 45 ,
| 3 , 49 ,
| 3 , 50 ,
| 4 , 5 ,
| 4 , 6 ,
| 4 , 8 ,
| 4 , 13 ,
| 4 , 15 ,
| 4 , 16 ,
| 4 , 18 ,
| 4 , 21 ,
| 4 , 25 ,
| 4 , 27 ,
| 4 , 29 ,
| 4 , 31 ,
| 4 , 37 ,
| 4 , 38 ,
| 4 , 39 ,
| 4 , 41 ,
| 4 , 42 ,
| 4 , 44 ,
| 4 , 47 ,
| 4 , 48 ,
| 4 , 49 ,
| 5 , 7 ,
| 5 , 9 ,
| 5 , 10 ,
| 5 , 16 ,
| 5 , 18 ,
| 5 , 19 ,
| 5 , 21 ,
| 5 , 25 ,
| 5 , 26 ,
| 5 , 28 ,
| 5 , 29 ,
| 5 , 31 ,
| 5 , 34 ,
| 5 , 36 ,
| 5 , 39 ,
| 5 , 41 ,
| 5 , 43 ,
| 5 , 48 ,
| 6 , 10 ,
| 6 , 11 ,
| 6 , 14 ,
| 6 , 15 ,
| 6 , 16 ,
| 6 , 18 ,
| 6 , 19 ,
| 6 , 20 ,
| 6 , 21 ,
| 6 , 22 ,
| 6 , 30 ,
| 6 , 33 ,
| 6 , 34 ,
| 6 , 35 ,
| 6 , 36 ,
| 6 , 38 ,
| 6 , 44 ,
| 6 , 46 ,
| 6 , 47 ,
| 6 , 48 ,
| 7 , 12 ,
| 7 , 16 ,
| 7 , 18 ,
| 7 , 19 ,
| 7 , 21 ,
| 7 , 25 ,
| 7 , 28 ,
| 7 , 32 ,
| 7 , 35 ,
| 7 , 37 ,
| 7 , 39 ,
| 7 , 41 ,
| 7 , 44 ,
| 7 , 50 ,
| 8 , 10 ,
| 8 , 11 ,
| 8 , 12 ,
| 8 , 15 ,
| 8 , 16 ,
| 8 , 17 ,
| 8 , 18 ,
| 8 , 22 ,
| 8 , 26 ,
| 8 , 27 ,
| 8 , 30 ,
| 8 , 32 ,
| 8 , 33 ,
| 8 , 34 ,
| 8 , 35 ,
| 8 , 36 ,
| 8 , 37 ,
| 8 , 40 ,
| 8 , 43 ,
| 8 , 45 ,
| 8 , 46 ,
| 8 , 47 ,
| 9 , 12 ,
| 9 , 13 ,
| 9 , 16 ,
| 9 , 17 ,
| 9 , 18 ,
| 9 , 23 ,
| 9 , 24 ,
| 9 , 25 ,
| 9 , 27 ,
| 9 , 28 ,
| 9 , 29 ,
| 9 , 30 ,
| 9 , 31 ,
| 9 , 32 ,
| 9 , 35 ,
| 9 , 36 ,
| 9 , 37 ,
| 9 , 41 ,
| 9 , 42 ,
| 9 , 43 ,
| 9 , 46 ,
| 9 , 47 ,
| 9 , 50 ,
| 10 , 25 ,
| 10 , 26 ,
| 10 , 31 ,
| 10 , 32 ,
| 10 , 33 ,
| 10 , 35 ,
| 10 , 38 ,
| 10 , 39 ,
| 10 , 40 ,
| 10 , 43 ,
| 10 , 44 ,
| 10 , 48 ,
| 10 , 49 ,
| 10 , 50 ,
| 11 , 13 ,
| 11 , 16 ,
| 11 , 17 ,
| 11 , 24 ,
| 11 , 26 ,
| 11 , 31 ,
| 11 , 32 ,
| 11 , 34 ,
| 11 , 37 ,
| 11 , 40 ,
| 11 , 41 ,
| 11 , 43 ,
| 11 , 44 ,
| 11 , 47 ,
| 11 , 48 ,
| 11 , 49 ,
| 12 , 13 ,
| 12 , 19 ,
| 12 , 20 ,
| 12 , 22 ,
| 12 , 23 ,
| 12 , 24 ,
| 12 , 29 ,
| 12 , 30 ,
| 12 , 32 ,
| 12 , 35 ,
| 12 , 36 ,
| 12 , 38 ,
| 12 , 43 ,
| 12 , 44 ,
| 12 , 45 ,
| 12 , 47 ,
| 12 , 48 ,
| 13 , 14 ,
| 13 , 16 ,
| 13 , 17 ,
| 13 , 23 ,
| 13 , 27 ,
| 13 , 28 ,
| 13 , 29 ,
| 13 , 30 ,
| 13 , 32 ,
| 13 , 33 ,
| 13 , 34 ,
| 13 , 38 ,
| 13 , 40 ,
| 13 , 42 ,
| 13 , 44 ,
| 13 , 45 ,
| 13 , 46 ,
| 13 , 48 ,
| 14 , 16 ,
| 14 , 18 ,
| 14 , 22 ,
| 14 , 24 ,
| 14 , 26 ,
| 14 , 27 ,
| 14 , 28 ,
| 14 , 31 ,
| 14 , 32 ,
| 14 , 33 ,
| 14 , 35 ,
| 14 , 36 ,
| 14 , 40 ,
| 14 , 41 ,
| 14 , 42 ,
| 14 , 43 ,
| 15 , 16 ,
| 15 , 18 ,
| 15 , 19 ,
| 15 , 23 ,
| 15 , 26 ,
| 15 , 33 ,
| 15 , 35 ,
| 15 , 36 ,
| 15 , 37 ,
| 15 , 39 ,
| 15 , 40 ,
| 15 , 44 ,
| 15 , 45 ,
| 15 , 48 ,
| 16 , 17 ,
| 16 , 18 ,
| 16 , 24 ,
| 16 , 29 ,
| 16 , 35 ,
| 16 , 36 ,
| 16 , 37 ,
| 16 , 48 ,
| 17 , 18 ,
| 17 , 19 ,
| 17 , 24 ,
| 17 , 27 ,
| 17 , 31 ,
| 17 , 37 ,
| 17 , 40 ,
| 17 , 48 ,
| 17 , 49 ,
| 17 , 50 ,
| 18 , 20 ,
| 18 , 21 ,
| 18 , 23 ,
| 18 , 24 ,
| 18 , 25 ,
| 18 , 26 ,
| 18 , 29 ,
| 18 , 32 ,
| 18 , 35 ,
| 18 , 38 ,
| 18 , 39 ,
| 18 , 40 ,
| 18 , 43 ,
| 18 , 45 ,
| 18 , 48 ,
| 18 , 49 ,
| 19 , 20 ,
| 19 , 21 ,
| 19 , 22 ,
| 19 , 28 ,
| 19 , 31 ,
| 19 , 34 ,
| 19 , 37 ,
| 19 , 43 ,
| 19 , 47 ,
| 19 , 50 ,
| 20 , 22 ,
| 20 , 26 ,
| 20 , 27 ,
| 20 , 30 ,
| 20 , 32 ,
| 20 , 39 ,
| 20 , 40 ,
| 20 , 43 ,
| 20 , 44 ,
| 21 , 23 ,
| 21 , 24 ,
| 21 , 32 ,
| 21 , 33 ,
| 21 , 34 ,
| 21 , 35 ,
| 21 , 40 ,
| 21 , 46 ,
| 21 , 50 ,
| 22 , 23 ,
| 22 , 30 ,
| 22 , 46 ,
| 23 , 25 ,
| 23 , 29 ,
| 23 , 31 ,
| 23 , 34 ,
| 23 , 36 ,
| 23 , 38 ,
| 23 , 41 ,
| 23 , 44 ,
| 24 , 30 ,
| 24 , 35 ,
| 24 , 40 ,
| 24 , 43 ,
| 24 , 44 ,
| 24 , 47 ,
| 24 , 48 ,
| 24 , 49 ,
| 25 , 28 ,
| 25 , 30 ,
| 25 , 31 ,
| 25 , 32 ,
| 25 , 37 ,
| 25 , 38 ,
| 25 , 39 ,
| 25 , 43 ,
| 26 , 29 ,
| 26 , 30 ,
| 26 , 35 ,
| 26 , 36 ,
| 26 , 37 ,
| 26 , 38 ,
| 26 , 43 ,
| 26 , 45 ,
| 26 , 47 ,
| 26 , 48 ,
| 26 , 49 ,
| 26 , 50 ,
| 27 , 28 ,
| 27 , 31 ,
| 27 , 32 ,
| 27 , 34 ,
| 27 , 37 ,
| 27 , 38 ,
| 27 , 39 ,
| 27 , 44 ,
| 27 , 46 ,
| 27 , 49 ,
| 28 , 29 ,
| 28 , 30 ,
| 28 , 34 ,
| 28 , 36 ,
| 28 , 40 ,
| 28 , 44 ,
| 28 , 46 ,
| 29 , 30 ,
| 29 , 31 ,
| 29 , 35 ,
| 29 , 38 ,
| 29 , 39 ,
| 29 , 40 ,
| 29 , 41 ,
| 29 , 46 ,
| 30 , 33 ,
| 30 , 35 ,
| 30 , 36 ,
| 30 , 37 ,
| 30 , 38 ,
| 30 , 46 ,
| 30 , 49 ,
| 31 , 32 ,
| 31 , 33 ,
| 31 , 35 ,
| 31 , 37 ,
| 31 , 38 ,
| 31 , 42 ,
| 31 , 43 ,
| 31 , 45 ,
| 31 , 48 ,
| 31 , 50 ,
| 32 , 36 ,
| 32 , 38 ,
| 32 , 39 ,
| 32 , 40 ,
| 32 , 41 ,
| 32 , 42 ,
| 32 , 43 ,
| 32 , 48 ,
| 32 , 50 ,
| 33 , 37 ,
| 33 , 42 ,
| 33 , 43 ,
| 33 , 46 ,
| 33 , 49 ,
| 33 , 50 ,
| 34 , 39 ,
| 34 , 40 ,
| 34 , 42 ,
| 34 , 45 ,
| 34 , 46 ,
| 34 , 47 ,
| 34 , 49 ,
| 34 , 50 ,
| 35 , 38 ,
| 35 , 41 ,
| 35 , 47 ,
| 35 , 49 ,
| 36 , 42 ,
| 36 , 44 ,
| 36 , 46 ,
| 36 , 47 ,
| 36 , 48 ,
| 36 , 50 ,
| 37 , 39 ,
| 37 , 40 ,
| 37 , 42 ,
| 37 , 46 ,
| 38 , 44 ,
| 38 , 45 ,
| 38 , 46 ,
| 38 , 47 ,
| 38 , 48 ,
| 38 , 50 ,
| 39 , 40 ,
| 39 , 45 ,
| 39 , 48 ,
| 39 , 50 ,
| 40 , 41 ,
| 40 , 45 ,
| 40 , 47 ,
| 40 , 48 ,
| 40 , 49 ,
| 40 , 50 ,
| 41 , 44 ,
| 42 , 43 ,
| 42 , 47 ,
| 42 , 50 ,
| 43 , 44 ,
| 44 , 45 ,
| 44 , 47 ,
| 44 , 49 ,
| 44 , 50 ,
| 45 , 46 ,
| 45 , 47 ,
| 45 , 48 ,
| 46 , 47 ,
| 46 , 48 ,
| 47 , 48 ,
| 47 , 49 ,
| 49 , 50 ,
|];
e =  482 ;
